Minimize
x16 + x18 + x20 + x22 + x28 + x30 + x32 + x34 + 
Subject To
\BRANCH
x0 + x16 + x17 - 2 d0 >= 0
d0 - x0 >= 0
d0 - x16 >= 0
d0 - x17 >= 0
\BRANCH
x1 + x18 + x19 - 2 d1 >= 0
d1 - x1 >= 0
d1 - x18 >= 0
d1 - x19 >= 0
\BRANCH
x2 + x20 + x21 - 2 d2 >= 0
d2 - x2 >= 0
d2 - x20 >= 0
d2 - x21 >= 0
\BRANCH
x3 + x22 + x23 - 2 d3 >= 0
d3 - x3 >= 0
d3 - x22 >= 0
d3 - x23 >= 0
\Clefia S0
\M_0
x16 + x18 + x20 + x22 + x24 + x25 + x26 + x27 - 5 d4 >= 0
d4 - x16 >= 0
d4 - x18 >= 0
d4 - x20 >= 0
d4 - x22 >= 0
d4 - x24 >= 0
d4 - x25 >= 0
d4 - x26 >= 0
d4 - x27 >= 0
\XOR
x4 - x24 = 0
\XOR
x5 - x25 = 0
\XOR
x6 - x26 = 0
\XOR
x7 - x27 = 0
\BRANCH
x8 + x28 + x29 - 2 d5 >= 0
d5 - x8 >= 0
d5 - x28 >= 0
d5 - x29 >= 0
\BRANCH
x9 + x30 + x31 - 2 d6 >= 0
d6 - x9 >= 0
d6 - x30 >= 0
d6 - x31 >= 0
\BRANCH
x10 + x32 + x33 - 2 d7 >= 0
d7 - x10 >= 0
d7 - x32 >= 0
d7 - x33 >= 0
\BRANCH
x11 + x34 + x35 - 2 d8 >= 0
d8 - x11 >= 0
d8 - x34 >= 0
d8 - x35 >= 0
\Clefia S1
\M_1
x28 + x30 + x32 + x34 + x36 + x37 + x38 + x39 - 5 d9 >= 0
d9 - x28 >= 0
d9 - x30 >= 0
d9 - x32 >= 0
d9 - x34 >= 0
d9 - x36 >= 0
d9 - x37 >= 0
d9 - x38 >= 0
d9 - x39 >= 0
\XOR
x12 - x36 = 0
\XOR
x13 - x37 = 0
\XOR
x14 - x38 = 0
\XOR
x15 - x39 = 0
\Identity
\Identity
\Identity
\Identity
\Identity
\Identity
\Identity
\Identity
\Identity
\Identity
\Identity
\Identity
\Identity
\Identity
\Identity
\Identity
\Identity
\Identity
\Identity
\Identity
\Identity
\Identity
\Identity
\Identity
\Identity
\Identity
\Identity
\Identity
\Identity
\Identity
\Identity
\Identity
x0 + x1 + x2 + x3 + x4 + x5 + x6 + x7 + x8 + x9 + x10 + x11 + x12 + x13 + x14 + x15 >= 1

Binary
d0
d1
d2
d3
d4
d5
d6
d7
d8
d9
x0
x1
x2
x3
x4
x5
x6
x7
x8
x9
x10
x11
x12
x13
x14
x15
x16
x17
x18
x19
x20
x21
x22
x23
x24
x25
x26
x27
x28
x29
x30
x31
x32
x33
x34
x35
x36
x37
x38
x39
End